NAME          
ROWS
 N  OBJ
 L  c6
 L  c7
 L  c8
 L  c9
 L  c10
 G  c1
 G  c2
 G  c3
 G  c4
 G  c5
COLUMNS
    ss[1]     c1        1
    ss[1]     OBJ       1000
    ss[2]     c2        1
    ss[2]     OBJ       1000
    ss[3]     c3        1
    ss[3]     OBJ       1000
    ss[4]     c4        1
    ss[4]     OBJ       1000
    ss[5]     c5        1
    ss[5]     OBJ       1000
    s[1]      c6        1
    s[1]      OBJ       -1000
    s[2]      c7        1
    s[2]      OBJ       -1000
    s[3]      c8        1
    s[3]      OBJ       -1000
    s[4]      c9        1
    s[4]      OBJ       -1000
    s[5]      c10       1
    s[5]      OBJ       -1000
    MARKER    'MARKER'                 'INTORG'
    x[1]      c6        523
    x[1]      c7        524
    x[1]      c8        441
    x[1]      c9        959
    x[1]      c10       1000
    x[1]      c1        556
    x[1]      c2        413
    x[1]      c3        907
    x[1]      c4        547
    x[1]      c5        599
    x[1]      OBJ       -301
    x[2]      c6        940
    x[2]      c7        304
    x[2]      c8        777
    x[2]      c9        912
    x[2]      c10       430
    x[2]      c1        125
    x[2]      c2        794
    x[2]      c3        447
    x[2]      c4        399
    x[2]      c5        63
    x[2]      OBJ       -382
    x[3]      c6        933
    x[3]      c7        525
    x[3]      c8        73
    x[3]      c9        469
    x[3]      c10       888
    x[3]      c1        736
    x[3]      c2        494
    x[3]      c3        158
    x[3]      c4        669
    x[3]      c5        627
    x[3]      OBJ       41
    x[4]      c6        411
    x[4]      c7        400
    x[4]      c8        948
    x[4]      c9        37
    x[4]      c10       258
    x[4]      c1        557
    x[4]      c2        821
    x[4]      c3        840
    x[4]      c4        818
    x[4]      c5        495
    x[4]      OBJ       218
    x[5]      c6        125
    x[5]      c7        928
    x[5]      c8        126
    x[5]      c9        671
    x[5]      c10       727
    x[5]      c1        301
    x[5]      c2        348
    x[5]      c3        440
    x[5]      c4        623
    x[5]      c5        55
    x[5]      OBJ       -617
    x[6]      c6        834
    x[6]      c7        370
    x[6]      c8        873
    x[6]      c9        16
    x[6]      c10       557
    x[6]      c1        6
    x[6]      c2        961
    x[6]      c3        413
    x[6]      c4        164
    x[6]      c5        314
    x[6]      OBJ       1
    x[7]      c6        298
    x[7]      c7        589
    x[7]      c8        984
    x[7]      c9        465
    x[7]      c10       270
    x[7]      c1        111
    x[7]      c2        63
    x[7]      c3        75
    x[7]      c4        859
    x[7]      c5        599
    x[7]      OBJ       -679
    x[8]      c6        671
    x[8]      c7        986
    x[8]      c8        192
    x[8]      c9        366
    x[8]      c10       509
    x[8]      c1        16
    x[8]      c2        962
    x[8]      c3        682
    x[8]      c4        960
    x[8]      c5        374
    x[8]      OBJ       8
    x[9]      c6        664
    x[9]      c7        933
    x[9]      c8        590
    x[9]      c9        172
    x[9]      c10       493
    x[9]      c1        704
    x[9]      c2        799
    x[9]      c3        936
    x[9]      c4        509
    x[9]      c5        472
    x[9]      OBJ       214
    x[10]     c6        901
    x[10]     c7        168
    x[10]     c8        139
    x[10]     c9        940
    x[10]     c10       538
    x[10]     c1        952
    x[10]     c2        242
    x[10]     c3        933
    x[10]     c4        365
    x[10]     c5        554
    x[10]     OBJ       194
    x[11]     c6        236
    x[11]     c7        661
    x[11]     c8        260
    x[11]     c9        636
    x[11]     c10       178
    x[11]     c1        408
    x[11]     c2        352
    x[11]     c3        753
    x[11]     c4        351
    x[11]     c5        946
    x[11]     OBJ       132
    x[12]     c6        382
    x[12]     c7        28
    x[12]     c8        494
    x[12]     c9        467
    x[12]     c10       468
    x[12]     c1        492
    x[12]     c2        337
    x[12]     c3        47
    x[12]     c4        949
    x[12]     c5        583
    x[12]     OBJ       241
    x[13]     c6        381
    x[13]     c7        349
    x[13]     c8        352
    x[13]     c9        250
    x[13]     c10       266
    x[13]     c1        163
    x[13]     c2        111
    x[13]     c3        488
    x[13]     c4        25
    x[13]     c5        359
    x[13]     OBJ       -445
    x[14]     c6        789
    x[14]     c7        864
    x[14]     c8        215
    x[14]     c9        120
    x[14]     c10       104
    x[14]     c1        938
    x[14]     c2        559
    x[14]     c3        649
    x[14]     c4        197
    x[14]     c5        675
    x[14]     OBJ       -274
    x[15]     c6        613
    x[15]     c7        305
    x[15]     c8        786
    x[15]     c9        678
    x[15]     c10       848
    x[15]     c1        315
    x[15]     c2        889
    x[15]     c3        475
    x[15]     c4        264
    x[15]     c5        87
    x[15]     OBJ       -612
    x[16]     c6        954
    x[16]     c7        74
    x[16]     c8        264
    x[16]     c9        210
    x[16]     c10       850
    x[16]     c1        949
    x[16]     c2        595
    x[16]     c3        88
    x[16]     c4        678
    x[16]     c5        563
    x[16]     OBJ       79
    x[17]     c6        637
    x[17]     c7        692
    x[17]     c8        486
    x[17]     c9        328
    x[17]     c10       931
    x[17]     c1        670
    x[17]     c2        914
    x[17]     c3        464
    x[17]     c4        581
    x[17]     c5        150
    x[17]     OBJ       76
    x[18]     c6        438
    x[18]     c7        502
    x[18]     c8        318
    x[18]     c9        910
    x[18]     c10       477
    x[18]     c1        1000
    x[18]     c2        576
    x[18]     c3        50
    x[18]     c4        500
    x[18]     c5        661
    x[18]     OBJ       -395
    x[19]     c6        911
    x[19]     c7        177
    x[19]     c8        489
    x[19]     c9        529
    x[19]     c10       528
    x[19]     c1        457
    x[19]     c2        312
    x[19]     c3        485
    x[19]     c4        285
    x[19]     c5        58
    x[19]     OBJ       -465
    x[20]     c6        459
    x[20]     c7        461
    x[20]     c8        266
    x[20]     c9        620
    x[20]     c10       525
    x[20]     c1        816
    x[20]     c2        323
    x[20]     c3        672
    x[20]     c4        422
    x[20]     c5        523
    x[20]     OBJ       252
    x[21]     c6        630
    x[21]     c7        752
    x[21]     c8        668
    x[21]     c9        1
    x[21]     c10       882
    x[21]     c1        357
    x[21]     c2        153
    x[21]     c3        254
    x[21]     c4        802
    x[21]     c5        885
    x[21]     OBJ       122
    x[22]     c6        722
    x[22]     c7        562
    x[22]     c8        263
    x[22]     c9        18
    x[22]     c10       287
    x[22]     c1        495
    x[22]     c2        888
    x[22]     c3        171
    x[22]     c4        200
    x[22]     c5        946
    x[22]     OBJ       16
    x[23]     c6        929
    x[23]     c7        708
    x[23]     c8        489
    x[23]     c9        284
    x[23]     c10       200
    x[23]     c1        916
    x[23]     c2        287
    x[23]     c3        548
    x[23]     c4        287
    x[23]     c5        125
    x[23]     OBJ       -461
    x[24]     c6        225
    x[24]     c7        733
    x[24]     c8        11
    x[24]     c9        940
    x[24]     c10       93
    x[24]     c1        852
    x[24]     c2        627
    x[24]     c3        202
    x[24]     c4        968
    x[24]     c5        544
    x[24]     OBJ       213
    x[25]     c6        463
    x[25]     c7        956
    x[25]     c8        139
    x[25]     c9        931
    x[25]     c10       697
    x[25]     c1        614
    x[25]     c2        888
    x[25]     c3        227
    x[25]     c4        674
    x[25]     c5        318
    x[25]     OBJ       83
    x[26]     c6        702
    x[26]     c7        858
    x[26]     c8        301
    x[26]     c9        8
    x[26]     c10       974
    x[26]     c1        161
    x[26]     c2        634
    x[26]     c3        673
    x[26]     c4        379
    x[26]     c5        593
    x[26]     OBJ       41
    x[27]     c6        870
    x[27]     c7        535
    x[27]     c8        37
    x[27]     c9        121
    x[27]     c10       498
    x[27]     c1        60
    x[27]     c2        424
    x[27]     c3        888
    x[27]     c4        733
    x[27]     c5        647
    x[27]     OBJ       165
    x[28]     c6        787
    x[28]     c7        848
    x[28]     c8        132
    x[28]     c9        10
    x[28]     c10       20
    x[28]     c1        382
    x[28]     c2        365
    x[28]     c3        176
    x[28]     c4        455
    x[28]     c5        299
    x[28]     OBJ       -368
    x[29]     c6        577
    x[29]     c7        592
    x[29]     c8        831
    x[29]     c9        728
    x[29]     c10       490
    x[29]     c1        373
    x[29]     c2        374
    x[29]     c3        82
    x[29]     c4        956
    x[29]     c5        47
    x[29]     OBJ       -501
    x[30]     c6        119
    x[30]     c7        701
    x[30]     c8        738
    x[30]     c9        790
    x[30]     c10       969
    x[30]     c1        570
    x[30]     c2        85
    x[30]     c3        811
    x[30]     c4        967
    x[30]     c5        898
    x[30]     OBJ       153
    x[31]     c6        835
    x[31]     c7        219
    x[31]     c8        727
    x[31]     c9        171
    x[31]     c10       26
    x[31]     c1        182
    x[31]     c2        650
    x[31]     c3        292
    x[31]     c4        829
    x[31]     c5        462
    x[31]     OBJ       68
    x[32]     c6        795
    x[32]     c7        597
    x[32]     c8        459
    x[32]     c9        613
    x[32]     c10       578
    x[32]     c1        934
    x[32]     c2        265
    x[32]     c3        522
    x[32]     c4        154
    x[32]     c5        502
    x[32]     OBJ       -404
    x[33]     c6        313
    x[33]     c7        774
    x[33]     c8        737
    x[33]     c9        200
    x[33]     c10       897
    x[33]     c1        129
    x[33]     c2        711
    x[33]     c3        717
    x[33]     c4        902
    x[33]     c5        572
    x[33]     OBJ       2
    x[34]     c6        938
    x[34]     c7        716
    x[34]     c8        818
    x[34]     c9        73
    x[34]     c10       130
    x[34]     c1        542
    x[34]     c2        204
    x[34]     c3        592
    x[34]     c4        240
    x[34]     c5        556
    x[34]     OBJ       146
    x[35]     c6        239
    x[35]     c7        450
    x[35]     c8        304
    x[35]     c9        882
    x[35]     c10       198
    x[35]     c1        767
    x[35]     c2        816
    x[35]     c3        235
    x[35]     c4        70
    x[35]     c5        361
    x[35]     OBJ       -367
    x[36]     c6        751
    x[36]     c7        871
    x[36]     c8        988
    x[36]     c9        138
    x[36]     c10       253
    x[36]     c1        964
    x[36]     c2        595
    x[36]     c3        398
    x[36]     c4        212
    x[36]     c5        385
    x[36]     OBJ       -462
    x[37]     c6        736
    x[37]     c7        84
    x[37]     c8        702
    x[37]     c9        83
    x[37]     c10       916
    x[37]     c1        896
    x[37]     c2        111
    x[37]     c3        519
    x[37]     c4        878
    x[37]     c5        464
    x[37]     OBJ       -388
    x[38]     c6        447
    x[38]     c7        881
    x[38]     c8        144
    x[38]     c9        969
    x[38]     c10       864
    x[38]     c1        350
    x[38]     c2        707
    x[38]     c3        987
    x[38]     c4        160
    x[38]     c5        105
    x[38]     OBJ       -334
    x[39]     c6        81
    x[39]     c7        239
    x[39]     c8        156
    x[39]     c9        105
    x[39]     c10       891
    x[39]     c1        178
    x[39]     c2        774
    x[39]     c3        937
    x[39]     c4        900
    x[39]     c5        533
    x[39]     OBJ       9
    x[40]     c6        984
    x[40]     c7        83
    x[40]     c8        180
    x[40]     c9        55
    x[40]     c10       714
    x[40]     c1        557
    x[40]     c2        138
    x[40]     c3        12
    x[40]     c4        594
    x[40]     c5        83
    x[40]     OBJ       73
    x[41]     c6        529
    x[41]     c7        285
    x[41]     c8        885
    x[41]     c9        335
    x[41]     c10       48
    x[41]     c1        975
    x[41]     c2        687
    x[41]     c3        599
    x[41]     c4        582
    x[41]     c5        1
    x[41]     OBJ       -318
    x[42]     c6        683
    x[42]     c7        309
    x[42]     c8        289
    x[42]     c9        75
    x[42]     c10       497
    x[42]     c1        70
    x[42]     c2        131
    x[42]     c3        414
    x[42]     c4        365
    x[42]     c5        112
    x[42]     OBJ       -539
    x[43]     c6        67
    x[43]     c7        713
    x[43]     c8        199
    x[43]     c9        46
    x[43]     c10       963
    x[43]     c1        226
    x[43]     c2        279
    x[43]     c3        362
    x[43]     c4        49
    x[43]     c5        323
    x[43]     OBJ       -475
    x[44]     c6        55
    x[44]     c7        16
    x[44]     c8        493
    x[44]     c9        909
    x[44]     c10       255
    x[44]     c1        356
    x[44]     c2        775
    x[44]     c3        818
    x[44]     c4        368
    x[44]     c5        14
    x[44]     OBJ       -278
    x[45]     c6        21
    x[45]     c7        47
    x[45]     c8        657
    x[45]     c9        774
    x[45]     c10       370
    x[45]     c1        404
    x[45]     c2        191
    x[45]     c3        998
    x[45]     c4        156
    x[45]     c5        581
    x[45]     OBJ       -294
    x[46]     c6        192
    x[46]     c7        475
    x[46]     c8        234
    x[46]     c9        858
    x[46]     c10       84
    x[46]     c1        79
    x[46]     c2        217
    x[46]     c3        654
    x[46]     c4        68
    x[46]     c5        291
    x[46]     OBJ       -595
    x[47]     c6        776
    x[47]     c7        541
    x[47]     c8        866
    x[47]     c9        863
    x[47]     c10       769
    x[47]     c1        833
    x[47]     c2        181
    x[47]     c3        32
    x[47]     c4        99
    x[47]     c5        159
    x[47]     OBJ       -661
    x[48]     c6        797
    x[48]     c7        592
    x[48]     c8        952
    x[48]     c9        665
    x[48]     c10       765
    x[48]     c1        616
    x[48]     c2        750
    x[48]     c3        469
    x[48]     c4        554
    x[48]     c5        108
    x[48]     OBJ       -289
    x[49]     c6        248
    x[49]     c7        610
    x[49]     c8        50
    x[49]     c9        845
    x[49]     c10       656
    x[49]     c1        575
    x[49]     c2        890
    x[49]     c3        618
    x[49]     c4        145
    x[49]     c5        702
    x[49]     OBJ       109
    x[50]     c6        253
    x[50]     c7        165
    x[50]     c8        834
    x[50]     c9        812
    x[50]     c10       767
    x[50]     c1        987
    x[50]     c2        776
    x[50]     c3        781
    x[50]     c4        319
    x[50]     c5        454
    x[50]     OBJ       67
    x[51]     c6        405
    x[51]     c7        990
    x[51]     c8        891
    x[51]     c9        549
    x[51]     c10       16
    x[51]     c1        340
    x[51]     c2        484
    x[51]     c3        944
    x[51]     c4        303
    x[51]     c5        251
    x[51]     OBJ       -451
    x[52]     c6        600
    x[52]     c7        378
    x[52]     c8        398
    x[52]     c9        338
    x[52]     c10       334
    x[52]     c1        794
    x[52]     c2        655
    x[52]     c3        499
    x[52]     c4        423
    x[52]     c5        385
    x[52]     OBJ       217
    x[53]     c6        706
    x[53]     c7        45
    x[53]     c8        604
    x[53]     c9        460
    x[53]     c10       749
    x[53]     c1        321
    x[53]     c2        662
    x[53]     c3        860
    x[53]     c4        257
    x[53]     c5        537
    x[53]     OBJ       159
    x[54]     c6        188
    x[54]     c7        642
    x[54]     c8        791
    x[54]     c9        214
    x[54]     c10       806
    x[54]     c1        337
    x[54]     c2        662
    x[54]     c3        216
    x[54]     c4        348
    x[54]     c5        337
    x[54]     OBJ       -354
    x[55]     c6        882
    x[55]     c7        870
    x[55]     c8        8
    x[55]     c9        42
    x[55]     c10       966
    x[55]     c1        580
    x[55]     c2        995
    x[55]     c3        499
    x[55]     c4        915
    x[55]     c5        675
    x[55]     OBJ       126
    x[56]     c6        28
    x[56]     c7        605
    x[56]     c8        917
    x[56]     c9        952
    x[56]     c10       378
    x[56]     c1        920
    x[56]     c2        248
    x[56]     c3        695
    x[56]     c4        905
    x[56]     c5        787
    x[56]     OBJ       -310
    x[57]     c6        165
    x[57]     c7        856
    x[57]     c8        76
    x[57]     c9        152
    x[57]     c10       247
    x[57]     c1        425
    x[57]     c2        718
    x[57]     c3        231
    x[57]     c4        684
    x[57]     c5        970
    x[57]     OBJ       250
    x[58]     c6        912
    x[58]     c7        812
    x[58]     c8        266
    x[58]     c9        808
    x[58]     c10       126
    x[58]     c1        170
    x[58]     c2        321
    x[58]     c3        776
    x[58]     c4        562
    x[58]     c5        822
    x[58]     OBJ       47
    x[59]     c6        368
    x[59]     c7        833
    x[59]     c8        233
    x[59]     c9        169
    x[59]     c10       860
    x[59]     c1        955
    x[59]     c2        533
    x[59]     c3        121
    x[59]     c4        217
    x[59]     c5        528
    x[59]     OBJ       78
    x[60]     c6        896
    x[60]     c7        837
    x[60]     c8        322
    x[60]     c9        161
    x[60]     c10       601
    x[60]     c1        581
    x[60]     c2        391
    x[60]     c3        703
    x[60]     c4        471
    x[60]     c5        782
    x[60]     OBJ       213
    x[61]     c6        825
    x[61]     c7        512
    x[61]     c8        830
    x[61]     c9        162
    x[61]     c10       545
    x[61]     c1        739
    x[61]     c2        81
    x[61]     c3        876
    x[61]     c4        532
    x[61]     c5        29
    x[61]     OBJ       -280
    x[62]     c6        235
    x[62]     c7        83
    x[62]     c8        370
    x[62]     c9        446
    x[62]     c10       5
    x[62]     c1        622
    x[62]     c2        253
    x[62]     c3        260
    x[62]     c4        334
    x[62]     c5        81
    x[62]     OBJ       -282
    x[63]     c6        72
    x[63]     c7        54
    x[63]     c8        248
    x[63]     c9        162
    x[63]     c10       163
    x[63]     c1        473
    x[63]     c2        879
    x[63]     c3        938
    x[63]     c4        601
    x[63]     c5        430
    x[63]     OBJ       339
    x[64]     c6        739
    x[64]     c7        998
    x[64]     c8        579
    x[64]     c9        514
    x[64]     c10       487
    x[64]     c1        789
    x[64]     c2        540
    x[64]     c3        643
    x[64]     c4        729
    x[64]     c5        957
    x[64]     OBJ       244
    x[65]     c6        873
    x[65]     c7        743
    x[65]     c8        120
    x[65]     c9        502
    x[65]     c10       447
    x[65]     c1        946
    x[65]     c2        959
    x[65]     c3        746
    x[65]     c4        566
    x[65]     c5        599
    x[65]     OBJ       44
    x[66]     c6        169
    x[66]     c7        668
    x[66]     c8        976
    x[66]     c9        507
    x[66]     c10       889
    x[66]     c1        499
    x[66]     c2        118
    x[66]     c3        967
    x[66]     c4        886
    x[66]     c5        52
    x[66]     OBJ       -560
    x[67]     c6        408
    x[67]     c7        748
    x[67]     c8        554
    x[67]     c9        578
    x[67]     c10       910
    x[67]     c1        666
    x[67]     c2        989
    x[67]     c3        360
    x[67]     c4        824
    x[67]     c5        314
    x[67]     OBJ       -330
    x[68]     c6        986
    x[68]     c7        809
    x[68]     c8        890
    x[68]     c9        655
    x[68]     c10       771
    x[68]     c1        546
    x[68]     c2        781
    x[68]     c3        630
    x[68]     c4        253
    x[68]     c5        180
    x[68]     OBJ       -800
    x[69]     c6        474
    x[69]     c7        704
    x[69]     c8        364
    x[69]     c9        963
    x[69]     c10       485
    x[69]     c1        630
    x[69]     c2        678
    x[69]     c3        46
    x[69]     c4        606
    x[69]     c5        877
    x[69]     OBJ       170
    x[70]     c6        838
    x[70]     c7        630
    x[70]     c8        488
    x[70]     c9        29
    x[70]     c10       626
    x[70]     c1        997
    x[70]     c2        787
    x[70]     c3        555
    x[70]     c4        618
    x[70]     c5        28
    x[70]     OBJ       -309
    x[71]     c6        108
    x[71]     c7        414
    x[71]     c8        435
    x[71]     c9        356
    x[71]     c10       65
    x[71]     c1        462
    x[71]     c2        424
    x[71]     c3        818
    x[71]     c4        418
    x[71]     c5        115
    x[71]     OBJ       31
    x[72]     c6        331
    x[72]     c7        25
    x[72]     c8        704
    x[72]     c9        939
    x[72]     c10       958
    x[72]     c1        750
    x[72]     c2        721
    x[72]     c3        52
    x[72]     c4        217
    x[72]     c5        483
    x[72]     OBJ       23
    x[73]     c6        361
    x[73]     c7        723
    x[73]     c8        56
    x[73]     c9        605
    x[73]     c10       893
    x[73]     c1        841
    x[73]     c2        623
    x[73]     c3        6
    x[73]     c4        153
    x[73]     c5        451
    x[73]     OBJ       8
    x[74]     c6        360
    x[74]     c7        10
    x[74]     c8        435
    x[74]     c9        217
    x[74]     c10       985
    x[74]     c1        795
    x[74]     c2        833
    x[74]     c3        331
    x[74]     c4        725
    x[74]     c5        434
    x[74]     OBJ       42
    x[75]     c6        790
    x[75]     c7        479
    x[75]     c8        891
    x[75]     c9        145
    x[75]     c10       156
    x[75]     c1        2
    x[75]     c2        986
    x[75]     c3        24
    x[75]     c4        701
    x[75]     c5        494
    x[75]     OBJ       -313
    x[76]     c6        206
    x[76]     c7        923
    x[76]     c8        776
    x[76]     c9        670
    x[76]     c10       892
    x[76]     c1        522
    x[76]     c2        141
    x[76]     c3        328
    x[76]     c4        451
    x[76]     c5        849
    x[76]     OBJ       -592
    x[77]     c6        258
    x[77]     c7        156
    x[77]     c8        5
    x[77]     c9        604
    x[77]     c10       253
    x[77]     c1        778
    x[77]     c2        66
    x[77]     c3        749
    x[77]     c4        402
    x[77]     c5        212
    x[77]     OBJ       161
    x[78]     c6        331
    x[78]     c7        505
    x[78]     c8        804
    x[78]     c9        821
    x[78]     c10       661
    x[78]     c1        42
    x[78]     c2        983
    x[78]     c3        206
    x[78]     c4        372
    x[78]     c5        520
    x[78]     OBJ       -366
    x[79]     c6        117
    x[79]     c7        844
    x[79]     c8        858
    x[79]     c9        121
    x[79]     c10       720
    x[79]     c1        714
    x[79]     c2        449
    x[79]     c3        906
    x[79]     c4        820
    x[79]     c5        178
    x[79]     OBJ       -390
    x[80]     c6        208
    x[80]     c7        897
    x[80]     c8        198
    x[80]     c9        434
    x[80]     c10       988
    x[80]     c1        645
    x[80]     c2        654
    x[80]     c3        346
    x[80]     c4        111
    x[80]     c5        354
    x[80]     OBJ       -276
    x[81]     c6        865
    x[81]     c7        483
    x[81]     c8        993
    x[81]     c9        818
    x[81]     c10       588
    x[81]     c1        855
    x[81]     c2        458
    x[81]     c3        104
    x[81]     c4        770
    x[81]     c5        251
    x[81]     OBJ       -359
    x[82]     c6        521
    x[82]     c7        611
    x[82]     c8        344
    x[82]     c9        720
    x[82]     c10       474
    x[82]     c1        396
    x[82]     c2        675
    x[82]     c3        415
    x[82]     c4        205
    x[82]     c5        72
    x[82]     OBJ       18
    x[83]     c6        214
    x[83]     c7        956
    x[83]     c8        124
    x[83]     c9        711
    x[83]     c10       518
    x[83]     c1        768
    x[83]     c2        515
    x[83]     c3        680
    x[83]     c4        698
    x[83]     c5        770
    x[83]     OBJ       11
    x[84]     c6        607
    x[84]     c7        590
    x[84]     c8        955
    x[84]     c9        804
    x[84]     c10       878
    x[84]     c1        392
    x[84]     c2        718
    x[84]     c3        187
    x[84]     c4        976
    x[84]     c5        806
    x[84]     OBJ       -291
    x[85]     c6        625
    x[85]     c7        452
    x[85]     c8        885
    x[85]     c9        615
    x[85]     c10       705
    x[85]     c1        141
    x[85]     c2        486
    x[85]     c3        220
    x[85]     c4        370
    x[85]     c5        580
    x[85]     OBJ       -764
    x[86]     c6        126
    x[86]     c7        323
    x[86]     c8        884
    x[86]     c9        745
    x[86]     c10       664
    x[86]     c1        544
    x[86]     c2        881
    x[86]     c3        255
    x[86]     c4        449
    x[86]     c5        97
    x[86]     OBJ       -533
    x[87]     c6        549
    x[87]     c7        328
    x[87]     c8        565
    x[87]     c9        134
    x[87]     c10       818
    x[87]     c1        847
    x[87]     c2        726
    x[87]     c3        122
    x[87]     c4        378
    x[87]     c5        80
    x[87]     OBJ       140
    x[88]     c6        429
    x[88]     c7        199
    x[88]     c8        42
    x[88]     c9        835
    x[88]     c10       793
    x[88]     c1        263
    x[88]     c2        386
    x[88]     c3        51
    x[88]     c4        633
    x[88]     c5        821
    x[88]     OBJ       -449
    x[89]     c6        541
    x[89]     c7        501
    x[89]     c8        94
    x[89]     c9        205
    x[89]     c10       154
    x[89]     c1        325
    x[89]     c2        796
    x[89]     c3        231
    x[89]     c4        566
    x[89]     c5        379
    x[89]     OBJ       96
    x[90]     c6        636
    x[90]     c7        883
    x[90]     c8        558
    x[90]     c9        946
    x[90]     c10       676
    x[90]     c1        227
    x[90]     c2        229
    x[90]     c3        536
    x[90]     c4        240
    x[90]     c5        635
    x[90]     OBJ       -846
    x[91]     c6        26
    x[91]     c7        81
    x[91]     c8        19
    x[91]     c9        894
    x[91]     c10       170
    x[91]     c1        765
    x[91]     c2        398
    x[91]     c3        897
    x[91]     c4        13
    x[91]     c5        508
    x[91]     OBJ       227
    x[92]     c6        366
    x[92]     c7        14
    x[92]     c8        328
    x[92]     c9        385
    x[92]     c10       963
    x[92]     c1        128
    x[92]     c2        335
    x[92]     c3        727
    x[92]     c4        689
    x[92]     c5        988
    x[92]     OBJ       160
    x[93]     c6        194
    x[93]     c7        953
    x[93]     c8        77
    x[93]     c9        491
    x[93]     c10       165
    x[93]     c1        10
    x[93]     c2        624
    x[93]     c3        782
    x[93]     c4        385
    x[93]     c5        748
    x[93]     OBJ       72
    x[94]     c6        476
    x[94]     c7        88
    x[94]     c8        564
    x[94]     c9        915
    x[94]     c10       25
    x[94]     c1        973
    x[94]     c2        283
    x[94]     c3        113
    x[94]     c4        319
    x[94]     c5        542
    x[94]     OBJ       -444
    x[95]     c6        956
    x[95]     c7        134
    x[95]     c8        54
    x[95]     c9        956
    x[95]     c10       742
    x[95]     c1        162
    x[95]     c2        182
    x[95]     c3        947
    x[95]     c4        341
    x[95]     c5        41
    x[95]     OBJ       -668
    x[96]     c6        568
    x[96]     c7        573
    x[96]     c8        749
    x[96]     c9        204
    x[96]     c10       661
    x[96]     c1        743
    x[96]     c2        589
    x[96]     c3        206
    x[96]     c4        863
    x[96]     c5        451
    x[96]     OBJ       -346
    x[97]     c6        520
    x[97]     c7        887
    x[97]     c8        597
    x[97]     c9        449
    x[97]     c10       689
    x[97]     c1        208
    x[97]     c2        153
    x[97]     c3        566
    x[97]     c4        462
    x[97]     c5        87
    x[97]     OBJ       -566
    x[98]     c6        159
    x[98]     c7        326
    x[98]     c8        973
    x[98]     c9        862
    x[98]     c10       429
    x[98]     c1        223
    x[98]     c2        945
    x[98]     c3        738
    x[98]     c4        630
    x[98]     c5        107
    x[98]     OBJ       -393
    x[99]     c6        879
    x[99]     c7        491
    x[99]     c8        633
    x[99]     c9        596
    x[99]     c10       703
    x[99]     c1        981
    x[99]     c2        272
    x[99]     c3        733
    x[99]     c4        91
    x[99]     c5        658
    x[99]     OBJ       23
    x[100]    c6        404
    x[100]    c7        269
    x[100]    c8        469
    x[100]    c9        460
    x[100]    c10       964
    x[100]    c1        143
    x[100]    c2        849
    x[100]    c3        891
    x[100]    c4        525
    x[100]    c5        636
    x[100]    OBJ       66
RHS
    rhs       c6        12841
    rhs       c7        13172
    rhs       c8        12088
    rhs       c9        12269
    rhs       c10       13839
    rhs       c1        1316
    rhs       c2        1338
    rhs       c3        1243
    rhs       c4        1230
    rhs       c5        1094
RANGES
BOUNDS
 LO bounds    ss[1]     0
 PL bounds    ss[1]
 LO bounds    ss[2]     0
 PL bounds    ss[2]
 LO bounds    ss[3]     0
 PL bounds    ss[3]
 LO bounds    ss[4]     0
 PL bounds    ss[4]
 LO bounds    ss[5]     0
 PL bounds    ss[5]
 MI bounds    s[1]
 UP bounds    s[1]      0
 MI bounds    s[2]
 UP bounds    s[2]      0
 MI bounds    s[3]
 UP bounds    s[3]      0
 MI bounds    s[4]
 UP bounds    s[4]      0
 MI bounds    s[5]
 UP bounds    s[5]      0
 BV bounds    x[1]
 BV bounds    x[2]
 BV bounds    x[3]
 BV bounds    x[4]
 BV bounds    x[5]
 BV bounds    x[6]
 BV bounds    x[7]
 BV bounds    x[8]
 BV bounds    x[9]
 BV bounds    x[10]
 BV bounds    x[11]
 BV bounds    x[12]
 BV bounds    x[13]
 BV bounds    x[14]
 BV bounds    x[15]
 BV bounds    x[16]
 BV bounds    x[17]
 BV bounds    x[18]
 BV bounds    x[19]
 BV bounds    x[20]
 BV bounds    x[21]
 BV bounds    x[22]
 BV bounds    x[23]
 BV bounds    x[24]
 BV bounds    x[25]
 BV bounds    x[26]
 BV bounds    x[27]
 BV bounds    x[28]
 BV bounds    x[29]
 BV bounds    x[30]
 BV bounds    x[31]
 BV bounds    x[32]
 BV bounds    x[33]
 BV bounds    x[34]
 BV bounds    x[35]
 BV bounds    x[36]
 BV bounds    x[37]
 BV bounds    x[38]
 BV bounds    x[39]
 BV bounds    x[40]
 BV bounds    x[41]
 BV bounds    x[42]
 BV bounds    x[43]
 BV bounds    x[44]
 BV bounds    x[45]
 BV bounds    x[46]
 BV bounds    x[47]
 BV bounds    x[48]
 BV bounds    x[49]
 BV bounds    x[50]
 BV bounds    x[51]
 BV bounds    x[52]
 BV bounds    x[53]
 BV bounds    x[54]
 BV bounds    x[55]
 BV bounds    x[56]
 BV bounds    x[57]
 BV bounds    x[58]
 BV bounds    x[59]
 BV bounds    x[60]
 BV bounds    x[61]
 BV bounds    x[62]
 BV bounds    x[63]
 BV bounds    x[64]
 BV bounds    x[65]
 BV bounds    x[66]
 BV bounds    x[67]
 BV bounds    x[68]
 BV bounds    x[69]
 BV bounds    x[70]
 BV bounds    x[71]
 BV bounds    x[72]
 BV bounds    x[73]
 BV bounds    x[74]
 BV bounds    x[75]
 BV bounds    x[76]
 BV bounds    x[77]
 BV bounds    x[78]
 BV bounds    x[79]
 BV bounds    x[80]
 BV bounds    x[81]
 BV bounds    x[82]
 BV bounds    x[83]
 BV bounds    x[84]
 BV bounds    x[85]
 BV bounds    x[86]
 BV bounds    x[87]
 BV bounds    x[88]
 BV bounds    x[89]
 BV bounds    x[90]
 BV bounds    x[91]
 BV bounds    x[92]
 BV bounds    x[93]
 BV bounds    x[94]
 BV bounds    x[95]
 BV bounds    x[96]
 BV bounds    x[97]
 BV bounds    x[98]
 BV bounds    x[99]
 BV bounds    x[100]
ENDATA
